-1 10 2 10 4 7 5 9 8 -1 
0 1 5 -1 6 2 2 3 8 -1 
2 9 0 9 1 5 6 1 8 -1 
9 -1 1 6 5 7 7 2 2 -1 
10 2 3 -1 9 0 -1 3 3 -1 
5 5 8 6 4 9 -1 8 5 -1 
10 2 7 10 6 4 6 3 -1 -1 
10 6 1 10 6 -1 10 3 3 -1 
-1 -1 6 0 3 2 1 7 1 -1 
10 8 7 7 5 0 3 4 1 -1 
